6 3 -1 0 7 -1 9 0 0 -1 
-1 3 6 6 1 5 8 0 2 -1 
-1 1 1 -1 10 1 6 0 3 -1 
7 4 10 2 10 7 7 0 9 -1 
6 1 -1 4 7 10 1 7 3 -1 
0 5 7 1 0 9 4 8 1 -1 
-1 9 5 2 0 8 5 7 0 -1 
5 4 7 2 9 -1 3 8 5 -1 
10 7 -1 8 0 9 5 2 8 -1 
1 5 1 8 10 -1 2 6 4 -1 
7 9 6 -1 8 4 3 1 6 -1 
5 3 -1 0 5 1 10 6 9 -1 
8 6 10 0 7 10 -1 4 6 -1 
6 1 7 -1 2 4 4 9 -1 -1 
8 9 0 9 2 4 5 7 4 -1 
